out/bwp_3_9_1_lp.out
34
1 12    1 12
0 -0    2 5
0 6    2 11
0 16    2 21
0 22    2 27
0 28    2 33
0 12    0 15
1 13    2 13
1 14    2 14
