out/bwp_3_9_1_lp.log
Tried aggregator 2 times.
MIP Presolve eliminated 53 rows and 263 columns.
MIP Presolve modified 116 coefficients.
Aggregator did 166 substitutions.
Reduced MIP has 335 rows, 284 columns, and 772 nonzeros.
Reduced MIP has 194 binaries, 14 generals, 0 SOSs, and 94 indicators.
Presolve time = 0.01 sec. (1.44 ticks)
Found incumbent of value 39.000000 after 0.01 sec. (2.04 ticks)
Probing fixed 3 vars, tightened 37 bounds.
Probing changed sense of 80 constraints.
Probing time = 0.01 sec. (2.95 ticks)
Tried aggregator 3 times.
MIP Presolve eliminated 64 rows and 54 columns.
MIP Presolve modified 92 coefficients.
Aggregator did 88 substitutions.
Reduced MIP has 183 rows, 142 columns, and 484 nonzeros.
Reduced MIP has 88 binaries, 35 generals, 0 SOSs, and 92 indicators.
Presolve time = 0.00 sec. (1.09 ticks)
Probing time = 0.00 sec. (0.54 ticks)
Tried aggregator 1 time.
Reduced MIP has 183 rows, 142 columns, and 484 nonzeros.
Reduced MIP has 88 binaries, 35 generals, 0 SOSs, and 92 indicators.
Presolve time = 0.00 sec. (0.23 ticks)
Probing time = 0.00 sec. (0.52 ticks)
Clique table members: 168.
MIP emphasis: balance optimality and feasibility.
MIP search method: dynamic search.
Parallel mode: deterministic, using up to 4 threads.
Root relaxation solution time = 0.00 sec. (0.40 ticks)

        Nodes                                         Cuts/
   Node  Left     Objective  IInf  Best Integer    Best Bound    ItCnt     Gap

*     0+    0                           39.0000       33.0000       41   15.38%
      0     0       33.0000    30       39.0000       33.0000       41   15.38%
      0     0       33.0000    22       39.0000       Cuts: 8       48   15.38%
      0     0       33.0000     3       39.0000      Cuts: 14       53   15.38%
      0     0       33.0000     7       39.0000       Cuts: 4       56   15.38%
      0     0       33.0000     4       39.0000       Cuts: 3       61   15.38%
*     0+    0                           35.0000       33.0000       61    5.71%
      0     2       33.0000     4       35.0000       33.0000       61    5.71%
Elapsed time = 0.06 sec. (15.17 ticks, tree = 0.01 MB, solutions = 2)
*    12+   12                           34.0000       33.0000      167    2.94%

Cover cuts applied:  1
Implied bound cuts applied:  26
Mixed integer rounding cuts applied:  1
Zero-half cuts applied:  2
Gomory fractional cuts applied:  6

Root node processing (before b&c):
  Real time             =    0.06 sec. (15.10 ticks)
Parallel b&c, 4 threads:
  Real time             =    0.02 sec. (5.37 ticks)
  Sync time (average)   =    0.01 sec.
  Wait time (average)   =    0.00 sec.
                          ------------
Total (root+branch&cut) =    0.08 sec. (20.47 ticks)
